12° run output:
{
    "Function": "ClusterA300.tsp",
    "Problem dimension": [
        226,
        85,
        199,
        160,
        90,
        157,
        268,
        267,
        174,
        0,
        258,
        129,
        55,
        259,
        51,
        255,
        20,
        186,
        58,
        11,
        21,
        292,
        270,
        216,
        192,
        193,
        77,
        180,
        65,
        165,
        32,
        59,
        18,
        75,
        243,
        278,
        8,
        224,
        48,
        175,
        291,
        26,
        247,
        122,
        189,
        234,
        236,
        256,
        207,
        103,
        140,
        282,
        80,
        92,
        134,
        182,
        257,
        242,
        119,
        204,
        223,
        82,
        264,
        135,
        73,
        44,
        156,
        146,
        17,
        296,
        84,
        228,
        269,
        64,
        108,
        238,
        191,
        235,
        76,
        45,
        164,
        46,
        133,
        5,
        169,
        200,
        86,
        197,
        42,
        170,
        121,
        194,
        78,
        144,
        229,
        263,
        293,
        187,
        36,
        6,
        95,
        298,
        252,
        241,
        137,
        109,
        215,
        97,
        272,
        83,
        251,
        142,
        299,
        87,
        217,
        290,
        161,
        123,
        131,
        166,
        19,
        171,
        128,
        37,
        117,
        2,
        104,
        232,
        25,
        285,
        249,
        183,
        148,
        29,
        106,
        143,
        230,
        136,
        98,
        184,
        67,
        246,
        110,
        222,
        7,
        14,
        115,
        178,
        47,
        39,
        52,
        125,
        141,
        130,
        91,
        209,
        13,
        105,
        57,
        225,
        152,
        113,
        221,
        70,
        266,
        185,
        43,
        40,
        1,
        68,
        12,
        244,
        15,
        281,
        63,
        206,
        54,
        10,
        107,
        245,
        101,
        198,
        118,
        261,
        239,
        262,
        16,
        93,
        50,
        114,
        172,
        250,
        79,
        71,
        271,
        248,
        139,
        208,
        253,
        276,
        4,
        61,
        176,
        102,
        22,
        202,
        49,
        126,
        69,
        275,
        56,
        188,
        94,
        62,
        227,
        168,
        163,
        35,
        210,
        111,
        284,
        177,
        154,
        127,
        289,
        3,
        254,
        274,
        41,
        167,
        231,
        99,
        116,
        260,
        53,
        213,
        150,
        31,
        297,
        9,
        237,
        280,
        173,
        151,
        38,
        124,
        145,
        233,
        60,
        218,
        72,
        277,
        120,
        74,
        214,
        100,
        112,
        81,
        287,
        294,
        89,
        162,
        159,
        155,
        66,
        34,
        279,
        295,
        203,
        220,
        149,
        265,
        288,
        283,
        196,
        212,
        88,
        24,
        28,
        181,
        201,
        147,
        273,
        240,
        33,
        158,
        219,
        23,
        27,
        132,
        286,
        211,
        190,
        30,
        205,
        138,
        179,
        153,
        195,
        96
    ],
    "Global Optimum": 0,
    "Algorithm": "Genetic algorithm",
    "Parameters": {
        "population": 30,
        "offspring": 30,
        "mutation probability": 0.0033333333333333335,
        "crossover probability": 0.9
    },
    "Fitness": 379673,
    "Solution": [
        226,
        85,
        199,
        160,
        90,
        157,
        268,
        267,
        174,
        0,
        258,
        129,
        55,
        259,
        51,
        255,
        20,
        186,
        58,
        11,
        21,
        292,
        270,
        216,
        192,
        193,
        77,
        180,
        65,
        165,
        32,
        59,
        18,
        75,
        243,
        278,
        8,
        224,
        48,
        175,
        291,
        26,
        247,
        122,
        189,
        234,
        236,
        256,
        207,
        103,
        140,
        282,
        80,
        92,
        134,
        182,
        257,
        242,
        119,
        204,
        223,
        82,
        264,
        135,
        73,
        44,
        156,
        146,
        17,
        296,
        84,
        228,
        269,
        64,
        108,
        238,
        191,
        235,
        76,
        45,
        164,
        46,
        133,
        5,
        169,
        200,
        86,
        197,
        42,
        170,
        121,
        194,
        78,
        144,
        229,
        263,
        293,
        187,
        36,
        6,
        95,
        298,
        252,
        241,
        137,
        109,
        215,
        97,
        272,
        83,
        251,
        142,
        299,
        87,
        217,
        290,
        161,
        123,
        131,
        166,
        19,
        171,
        128,
        37,
        117,
        2,
        104,
        232,
        25,
        285,
        249,
        183,
        148,
        29,
        106,
        143,
        230,
        136,
        98,
        184,
        67,
        246,
        110,
        222,
        7,
        14,
        115,
        178,
        47,
        39,
        52,
        125,
        141,
        130,
        91,
        209,
        13,
        105,
        57,
        225,
        152,
        113,
        221,
        70,
        266,
        185,
        43,
        40,
        1,
        68,
        12,
        244,
        15,
        281,
        63,
        206,
        54,
        10,
        107,
        245,
        101,
        198,
        118,
        261,
        239,
        262,
        16,
        93,
        50,
        114,
        172,
        250,
        79,
        71,
        271,
        248,
        139,
        208,
        253,
        276,
        4,
        61,
        176,
        102,
        22,
        202,
        49,
        126,
        69,
        275,
        56,
        188,
        94,
        62,
        227,
        168,
        163,
        35,
        210,
        111,
        284,
        177,
        154,
        127,
        289,
        3,
        254,
        274,
        41,
        167,
        231,
        99,
        116,
        260,
        53,
        213,
        150,
        31,
        297,
        9,
        237,
        280,
        173,
        151,
        38,
        124,
        145,
        233,
        60,
        218,
        72,
        277,
        120,
        74,
        214,
        100,
        112,
        81,
        287,
        294,
        89,
        162,
        159,
        155,
        66,
        34,
        279,
        295,
        203,
        220,
        149,
        265,
        288,
        283,
        196,
        212,
        88,
        24,
        28,
        181,
        201,
        147,
        273,
        240,
        33,
        158,
        219,
        23,
        27,
        132,
        286,
        211,
        190,
        30,
        205,
        138,
        179,
        153,
        195,
        96
    ],
    "Nb of functions evaluations": 50010,
    "Computational time in seconds": 159.96371459960938,
    "Stopping criterion in evaluations": 50000
}